Problem:    
Rows:       10
Columns:    5 (5 integer, 0 binary)
Non-zeros:  18
Status:     INTEGER OPTIMAL
Objective:  obj = 4645 (MINimum)

   No.   Row name        Activity     Lower bound   Upper bound
------ ------------    ------------- ------------- -------------
     1 r.5                         7             7               
     2 r.6                        10             6               
     3 r.7                        10             8               
     4 r.8                        15             2               
     5 r.9                         8             8               
     6 r.10                        8             8               
     7 r.11                        8             6               
     8 r.12                        3             3               
     9 r.13                       11             0               
    10 r.14                        8             8               

   No. Column name       Activity     Lower bound   Upper bound
------ ------------    ------------- ------------- -------------
     1 x1           *              7             0               
     2 x2           *              3             0               
     3 x3           *              5             0               
     4 x4           *              3             0               
     5 x5           *              8             0               

Integer feasibility conditions:

KKT.PE: max.abs.err = 0.00e+00 on row 0
        max.rel.err = 0.00e+00 on row 0
        High quality

KKT.PB: max.abs.err = 0.00e+00 on row 0
        max.rel.err = 0.00e+00 on row 0
        High quality

End of output
